<number of tasks>
50

<cycle time>
1000

<order strength>
0.595


<task times>
1 321
2 321
3 21
4 137
5 250
6 158
7 117
8 53
9 98
10 465
11 179
12 563
13 267
14 117
15 110
16 138
17 316
18 80
19 95
20 33
21 43
22 478
23 542
24 130
25 84
26 49
27 129
28 158
29 230
30 565
31 66
32 171
33 172
34 497
35 223
36 242
37 100
38 57
39 400
40 447
41 98
42 145
43 137
44 449
45 444
46 79
47 95
48 153
49 591
50 309

<precedence relations>
1,24
1,26
1,30
2,11
2,17
3,6
3,7
3,8
3,9
3,10
4,8
4,10
5,6
5,8
5,9
6,11
6,13
7,14
8,11
8,12
8,13
8,14
9,11
9,12
9,17
10,15
10,37
11,15
11,16
11,18
12,15
12,24
12,28
14,17
14,18
15,22
16,20
16,23
16,26
16,28
17,19
17,21
18,19
18,20
18,21
18,22
18,23
19,24
19,27
19,28
20,25
20,27
20,33
21,26
21,32
21,39
21,41
22,48
22,49
23,24
24,29
24,33
25,44
25,48
26,35
27,48
28,30
29,31
29,34
29,35
30,31
30,32
30,33
31,36
31,37
31,39
33,38
35,40
35,44
36,42
36,50
37,41
37,45
38,43
38,44
39,40
39,47
39,50
41,46
41,49
42,47
43,48
43,49
44,50
45,46
45,47

<end>
